nNurses = 115;
nHours = 40;
minHours = 10;
maxHours = 10;
maxConsec = 6;
maxPresence = 10;
demand = [28, 28, 24, 20, 18, 19, 17, 15, 11, 12, 9, 9, 13, 11, 8, 8, 13, 12, 7, 8, 10, 12, 13, 14, 13, 11, 7, 7, 10, 6, 8, 8, 9, 12, 17, 15, 20, 17, 17, 14];
